M+/Instances/S2-5-M+/S2-5-5-3-l-M+.txt
     200       5    0.05
       3       1       2       3       2       5       5      14       2       7       2
       2       3       3       3       3       5      12       8       6       1       2
       2       2       2       2       2       9      15      10      11      12       2
       2       2       1       2       3       4       5       6      16      14       2
       3       3       3       2       2       3      13      15       5       0       2
       3       3       1       2       1      12      14      12      13       9       3
       1       2       2       1       3      10       7       0       9       1       3
       3       2       1       1       1       9       8       1       1      10       3
       2       2       3       1       3      16       1       4      16      14       3
       1       3       1       3       1       9       0       7       2      10       2
       1       2       1       1       2      14       7       4      16      15       3
       3       1       3       2       1      11      12       8      14      15       2
       1       3       1       3       1      16       5       7      13      13       2
       3       2       3       1       1       1      13       7       5       6       3
       2       2       1       3       2      13      13       1       8      16       2
       2       2       2       2       1       4       2       9      13       1       3
       2       1       2       1       1       3       4       4       5      14       3
       2       1       2       3       1       1       3      10      13       3       2
       2       3       1       2       3       1      10      10       2      15       3
       3       2       1       2       2       6      12       3      16       4       2
       1       2       3       2       1      13       6       1       7      16       2
       1       1       1       1       1      11      14       1       0       7       3
       3       1       3       2       3       3       7       3       5       8       2
       2       2       2       2       2      15       1       1      15       2       3
       2       2       1       2       1       7      10       8      14       8       3
       3       1       2       1       2       9      15      16      15       1       2
       2       3       2       1       3      12       2      10       3      12       3
       3       1       2       2       2       1      16       4       6      13       3
       1       3       1       3       1       1      11       8      16      13       2
       1       2       3       1       2      11      11       0      13      12       2
       1       2       2       2       1       4       5       0       3       3       3
       3       1       3       1       3      15       6      12       7      10       2
       3       3       2       2       2       7       4       6       2      15       2
       1       3       1       3       1      14       3       1      15      11       3
       1       2       3       3       2      15       0      12       7      10       3
       1       2       2       3       3      15       6      11       2      14       3
       1       1       1       3       3       6       0       1      15       4       3
       2       1       1       1       3      16      15       1      14       8       3
       1       1       1       3       3      11       3       1      13       0       3
       3       3       3       1       1      11       3      10      10       3       2
       1       1       1       3       2      15       3       0      12      12       3
       2       2       1       1       1      15       3       9       2       9       3
       3       1       3       3       2       9       3       9      16       4       3
       3       3       1       2       2       1       9       0       4      10       2
       2       2       2       2       3      14       7       1      15       0       2
       2       2       3       2       2       0       6       0       4      12       3
       2       2       3       3       1      15       9      12      13      12       3
       2       1       1       1       2       2       1       6       1      10       2
       1       3       2       1       3       9      16      12       4      16       3
       1       3       1       1       3       9       4       4       1       4       3
       1       2       1       3       1       1       2       8       7      11       3
       1       3       1       3       3      13      15       2       4      13       2
       2       3       2       1       3      14       4       7      11       6       2
       2       2       1       1       2       8       6      14      13       3       3
       2       1       1       1       2      10       5       7      14      11       2
       3       1       2       3       2      16       8       6       4       8       2
       3       2       3       1       3       0       7       9      12      10       3
       2       3       2       1       2      14       3       0       7       6       3
       3       2       3       3       3      14       3      16      15       9       3
       3       3       1       3       3      16       0      14      13       8       3
       3       2       1       1       2       2       8      14       9       0       3
       3       1       2       3       3       7      12      16      15      12       2
       1       2       2       3       1      15      12       2       7       2       2
       2       2       2       2       2       5      11      15      12      10       2
       3       1       2       2       1      12       8      13       7       6       2
       2       2       1       1       3       9       6       3      15       9       2
       3       3       1       3       2      13       7      15       8      15       3
       1       3       3       1       2       3       6       1      15       4       2
       3       1       1       2       2       8       4      13       8       0       3
       1       3       1       3       2       7      15      13      15       1       3
       3       2       1       2       3       6      16       5       2       5       3
       2       1       1       3       1       5      15       5      11      15       3
       3       1       3       2       3       8       1      10      10       8       3
       3       1       1       2       3      15       2       7       4       8       3
       3       1       3       2       1       9       0      10      10       1       3
       3       1       3       2       1      16       2       5       8       1       3
       3       2       2       1       3       2       0       7      16       2       2
       2       3       2       3       2       8       6       1       1      13       2
       3       2       2       2       2      14       8       1       3       8       2
       1       2       2       2       3      15       4       2      13       6       3
       1       1       3       1       3       0       5       9      10      12       3
       3       3       2       1       3      13      13       6      10      16       2
       1       1       1       2       3       2      15       0      10       9       2
       2       2       3       2       1       3       2      15      12       4       3
       3       2       1       2       2       3      16       7       4       4       3
       3       1       3       1       2      16      10       7      10       7       3
       2       1       2       1       3       6       3       4      12       3       2
       3       3       1       2       2      16       0      11      15      13       3
       1       1       1       3       1       0       5       6       9       2       3
       3       1       1       3       3      15      10      15       3       0       2
       3       3       1       2       1       5      15       2      11       9       3
       2       2       3       1       2       6      10      16      10       8       2
       3       3       3       1       2       4       2      14      14      10       2
       3       1       3       1       1       5       9      13       5       6       2
       1       2       1       3       2      14      15      12      12      14       2
       3       1       3       1       2       2      13       1       7      15       2
       1       1       2       3       1      12       0      10       6       8       2
       3       2       2       2       3       0       8      14      13       7       3
       3       1       1       2       1       9       8      12       6       9       3
       2       2       1       3       2      12       7       5      12      15       2
       2       3       3       1       3       8      16      15      14      11       3
       2       3       3       2       3      11       2       3      13      14       2
       2       2       1       1       1       7       7       0      15      16       3
       3       2       3       1       3      16       6       0       5       6       2
       2       3       3       3       1       8      12      15       9      12       3
       1       1       3       3       2       9      15      16      16      14       3
       1       2       3       1       2       1       3       2       4       9       3
       2       3       1       2       1       9       9      13       6       3       3
       2       2       2       2       2       1       1       0       3      11       3
       1       1       1       2       3       6      14      12      12       8       2
       2       2       1       2       2      13      13       3      10      10       3
       3       3       1       3       1       6       8       3      10      13       3
       1       2       1       1       1       5       3       7      14       4       2
       3       1       1       3       1      12      14       7      16       5       2
       1       2       1       2       3       0       0      15       6       6       3
       3       3       2       2       2      12       2       7      13       6       2
       1       2       3       1       1       2       2       6       7       4       3
       3       2       1       3       3      10      12       5       3       9       3
       2       3       1       2       3       6      13       9      10       9       3
       3       2       1       3       3      13      13       7      10       8       2
       2       1       3       1       3      11      16       3       1       0       3
       2       2       1       2       1      16      12      13      14      12       3
       1       1       1       2       3      13       4       9       4       0       3
       3       3       2       3       3      16       3      13       2       3       2
       2       1       2       3       1       6       5       7      10       9       2
       3       3       2       3       3       1       6       4       6       8       2
       2       3       1       1       3       6       7       4      10       5       3
       3       2       3       2       3       0       2       2       9      13       2
       3       3       2       1       1       7       1       6      11       8       3
       1       1       1       1       2      12       7       9       9      11       3
       2       2       1       1       2       1       5       5      11      14       3
       3       2       2       3       2       2       0       6      10      14       2
       1       2       2       2       1       1       3       7       1      10       3
       2       1       3       3       2      16       3       0       6       7       3
       3       3       2       1       2      10       8       0      11       2       3
       3       2       2       3       1      10       9      16       7       8       3
       2       2       2       3       1       4      11      11      11       2       3
       3       1       2       2       3       3       3       2      13       5       2
       2       2       2       2       2      15      13       9      11       8       3
       2       1       3       1       1       3       3      14      16       9       2
       1       3       2       2       2       3       2       3       5      16       2
       3       2       3       2       3      16      15       8       2      14       2
       2       2       3       2       1      14       5       1      11       2       3
       3       2       3       1       2       2       5      15      12       5       2
       2       2       3       3       2       1      12       0      13      14       2
       3       2       1       3       1      12       0       0      16      16       2
       2       3       2       2       2      12      15       9      15      14       2
       2       3       2       3       2      16       8       6       8      14       3
       3       1       2       2       3      12       5      14      15       6       3
       3       3       2       2       3      10       4      16       5      11       2
       2       2       1       3       2      14       4       2       7      14       3
       1       2       1       3       3      13       6      15       6       9       3
       3       2       1       1       2      10      12      11       6       2       2
       3       3       3       3       1       7      14      10       4       8       3
       2       3       3       2       3       3       3       4      14       0       2
       1       1       2       1       2      10       0       5      10       7       2
       2       2       3       2       3      10       8       8      11      16       3
       2       1       2       1       1      12       8      11      14       1       2
       3       3       3       2       3       7      12      16      14       8       2
       2       3       2       2       1       7       2       9      16      13       3
       3       3       3       2       1      10       7      11      12       2       2
       2       2       2       3       1      15       2       0      10       9       3
       3       2       3       2       2       4       7      10      10      12       3
       1       3       2       1       2      15       3      11       4      12       2
       2       1       2       3       1      10      11      10       9      16       2
       2       3       1       1       3      15      11       7       6       8       3
       2       3       1       3       1       2      13       6       9       4       2
       3       3       3       1       1       0      11       3       3      13       2
       1       3       2       2       1       4      15       4      15       0       2
       3       3       2       2       2      15      13      13      12       1       3
       2       1       1       3       2       7      12      11       0      10       2
       2       1       3       1       3       0       4       6      13       8       3
       2       3       3       3       2      12       6       7      11      12       3
       3       2       3       2       1      12      16       5      12       8       3
       2       3       2       3       1       6       5       0       3       7       2
       3       1       3       2       3       0      16      11       9       4       2
       3       2       3       3       3      14       4       7      16      15       2
       3       2       2       1       3       7      10       0       3       7       2
       2       1       3       1       2       0       3      15       5       3       2
       2       3       2       3       2       6       6      12      11      14       3
       3       1       2       3       3       8      16      16      15       6       3
       3       2       2       3       3      13       2      12      16      12       3
       2       3       3       2       1       3      15       2       3       9       2
       3       2       2       1       2       2       6       0       2       4       3
       2       3       1       1       1      14       1      16       3      11       2
       1       1       2       3       1       1       5       6      15      11       3
       2       3       1       3       1      11      14      13      11      10       2
       2       3       2       1       3       5      10      11      16      16       2
       2       2       3       2       3       9       2       1       5      10       3
       2       1       1       3       3       8       7       8      10       0       3
       2       3       1       1       2       3       5       0       6      14       2
       1       1       1       1       2       0      11      12       4       7       3
       2       1       3       2       3       7      13       8      12       6       3
       1       1       3       2       1       9      12       3       6       0       2
       2       1       1       2       3      14       7       6       9       8       3
       3       1       3       3       3       9       4       4      14       6       3
       2       1       1       2       3      16       6      14      14      12       3
       2       2       3       3       1      14      13       7      11       6       2
       3       2       2       1       3       8      15       9       7      16       3
       1       2       1       1       2      12      11       6       3       7       3
     148     162     181     179     165
     406     203     203     406     406
     633     660     890     922     709